
  22   10
  10   10   10   10   10   10   10   10   10   10

   0   0   0   0   0   0   0   0   0   0   0   4 2 3 4 5 
   1  10  10  10  10  10  10  10  10  10  10   2 7 6 
   1  10  10  10  10  10  10  10  10  10  10   2 8 7 
   4  10  10  10  10  10  10  10  10  10  10   2 8 7 
  10  10  10  10  10  10  10  10  10  10  10   1 6 
   6  10  10  10  10  10  10  10  10  10  10   3 12 10 8 
   7  10  10  10  10  10  10  10  10  10  10   3 12 10 9 
   8  10  10  10  10  10  10  10  10  10  10   1 9 
   6  10  10  10  10  10  10  10  10  10  10   2 14 11 
   4  10  10  10  10  10  10  10  10  10  10   1 11 
   3  10  10  10  10  10  10  10  10  10  10   1 13 
   3  10  10  10  10  10  10  10  10  10  10   1 14 
   2  10  10  10  10  10  10  10  10  10  10   2 17 15 
   5  10  10  10  10  10  10  10  10  10  10   2 17 15 
   8  10  10  10  10  10  10  10  10  10  10   2 19 16 
   6  10  10  10  10  10  10  10  10  10  10   2 21 18 
   2  10  10  10  10  10  10  10  10  10  10   2 21 20 
   8  10  10  10  10  10  10  10  10  10  10   1 20 
   7  10  10  10  10  10  10  10  10  10  10   1 20 
   7  10  10  10  10  10  10  10  10  10  10   1 22
   9  10  10  10  10  10  10  10  10  10  10   1 22
   0   0   0   0   0   0   0   0   0   0   0   0 
